cost: 603.56
Route 1:           0   34   27   14   24   30    8   21    7   36   50   39   48   33    5   46    9    0
Route 2:           0   35   18   44   20   10   47   32   31   26   49    1   12   13    2   41   23   15    0
Route 3:           0   43   29   11   40   28    4    0
Route 4:           0   45   38    6   37   19   25   17    3   22   42   16    0
